Geographic Exponential Decay
80 315 318 100 287 140 274 236 38 224 186 303 248 126 15 45 198 203 225 79 10 41 284 174 118 238 65 215 314 291 95 183 113 147 241 258 153 157 84 87 301 73 116 59 31 212 20 131 205 11 27 228 249 298 247 230 67 222 21 107 46 281 279 96 233 64 294 240 188 237 245 313 98 197 34 12 299 175 137 55 128
p edge 320 323
e 0 264 10.0
e 1 28 1.0
e 1 0 7.0
e 2 187 11.0
e 2 1 8.0
e 3 89 5.0
e 3 2 3.0
e 4 206 1.0
e 4 3 3.0
e 5 208 2.0
e 5 4 7.0
e 6 135 4.0
e 6 5 9.0
e 7 132 6.0
e 7 6 10.0
e 8 23 1.0
e 8 7 12.0
e 9 244 1.0
e 9 8 1.0
e 10 292 55.0
e 10 13 43.0
e 10 174 3.0
e 10 9 92.0
e 11 15 13.0
e 11 12 76.0
e 11 14 5.0
e 11 10 38.0
e 12 183 39.0
e 12 200 75.0
e 15 136 73.0
e 15 52 98.0
e 16 248 91.0
e 16 11 79.0
e 17 129 10.0
e 17 16 4.0
e 18 257 5.0
e 18 17 2.0
e 19 195 1.0
e 19 18 1.0
e 20 285 40.0
e 20 81 37.0
e 20 278 6.0
e 20 19 80.0
e 21 90 92.0
e 21 318 69.0
e 21 266 67.0
e 21 20 81.0
e 22 170 1.0
e 22 21 36.0
e 24 183 86.0
e 25 171 1.0
e 25 22 1.0
e 26 287 83.0
e 26 25 4.0
e 27 220 90.0
e 27 29 64.0
e 27 120 47.0
e 27 26 43.0
e 30 32 1.0
e 30 27 68.0
e 31 161 86.0
e 31 216 46.0
e 31 142 7.0
e 31 30 14.0
e 33 151 2.0
e 33 31 10.0
e 34 50 56.0
e 34 125 46.0
e 34 165 7.0
e 34 33 55.0
e 35 180 3.0
e 35 34 29.0
e 36 94 1.0
e 36 35 1.0
e 37 197 84.0
e 37 36 1.0
e 38 294 29.0
e 38 162 2.0
e 38 39 68.0
e 38 37 59.0
e 40 225 96.0
e 41 115 94.0
e 41 42 84.0
e 41 92 34.0
e 41 38 94.0
e 43 44 9.0
e 43 317 22.0
e 43 41 98.0
e 45 82 92.0
e 45 293 29.0
e 45 215 89.0
e 46 252 26.0
e 46 100 74.0
e 46 143 96.0
e 47 213 1.0
e 47 43 47.0
e 48 163 3.0
e 48 47 1.0
e 49 51 10.0
e 49 48 9.0
e 53 246 8.0
e 53 49 6.0
e 54 96 7.0
e 55 56 93.0
e 55 217 83.0
e 55 57 40.0
e 55 53 43.0
e 58 251 5.0
e 58 55 33.0
e 59 199 82.0
e 59 202 91.0
e 59 60 12.0
e 59 58 82.0
e 61 62 11.0
e 61 59 17.0
e 63 287 91.0
e 64 307 27.0
e 64 318 96.0
e 64 263 70.0
e 65 253 25.0
e 65 227 88.0
e 65 66 70.0
e 65 61 95.0
e 67 229 3.0
e 67 203 72.0
e 67 221 81.0
e 68 173 1.0
e 68 65 49.0
e 69 295 5.0
e 69 68 9.0
e 70 71 1.0
e 70 69 10.0
e 72 73 88.0
e 72 70 3.0
e 73 93 50.0
e 73 279 80.0
e 74 144 1.0
e 74 72 4.0
e 75 290 4.0
e 75 74 2.0
e 76 124 6.0
e 76 75 12.0
e 77 78 13.0
e 77 76 14.0
e 79 164 74.0
e 79 80 42.0
e 79 177 99.0
e 79 77 17.0
e 83 312 26.0
e 83 111 31.0
e 83 79 74.0
e 84 193 79.0
e 84 301 46.0
e 84 85 95.0
e 86 87 70.0
e 87 88 70.0
e 87 90 92.0
e 91 209 1.0
e 91 83 7.0
e 95 96 62.0
e 95 281 83.0
e 95 97 36.0
e 96 301 12.0
e 98 167 75.0
e 98 99 83.0
e 98 222 35.0
e 100 247 70.0
e 100 242 27.0
e 101 260 1.0
e 101 91 3.0
e 102 168 8.0
e 102 101 5.0
e 103 104 3.0
e 103 102 4.0
e 105 106 6.0
e 105 103 10.0
e 107 197 31.0
e 107 108 10.0
e 107 109 20.0
e 110 160 1.0
e 110 105 10.0
e 112 113 44.0
e 112 110 3.0
e 113 172 66.0
e 113 114 43.0
e 116 117 100.0
e 116 118 52.0
e 116 119 10.0
e 116 112 49.0
e 118 154 47.0
e 118 121 31.0
e 122 261 2.0
e 122 116 34.0
e 123 218 3.0
e 123 122 3.0
e 126 127 82.0
e 126 198 28.0
e 126 128 79.0
e 128 130 42.0
e 128 274 22.0
e 131 235 47.0
e 131 181 75.0
e 131 236 79.0
e 131 123 74.0
e 133 134 1.0
e 133 131 49.0
e 137 238 31.0
e 137 185 60.0
e 137 138 35.0
e 139 289 3.0
e 139 133 1.0
e 140 291 66.0
e 140 294 14.0
e 140 155 83.0
e 141 262 16.0
e 141 139 1.0
e 145 186 53.0
e 146 248 81.0
e 147 148 86.0
e 147 265 53.0
e 147 149 32.0
e 147 141 70.0
e 150 152 5.0
e 150 147 42.0
e 153 156 39.0
e 153 299 40.0
e 153 230 95.0
e 157 158 100.0
e 157 223 53.0
e 157 159 69.0
e 157 150 86.0
e 166 274 70.0
e 169 267 16.0
e 169 157 11.0
e 174 210 95.0
e 174 175 17.0
e 175 201 76.0
e 175 176 26.0
e 178 219 3.0
e 178 169 11.0
e 179 214 1.0
e 179 178 6.0
e 182 286 11.0
e 182 179 1.0
e 183 184 7.0
e 186 188 80.0
e 186 247 55.0
e 188 222 81.0
e 188 189 11.0
e 190 191 7.0
e 190 182 1.0
e 192 194 1.0
e 192 190 1.0
e 196 197 67.0
e 198 277 41.0
e 198 203 32.0
e 203 204 19.0
e 205 207 29.0
e 205 211 28.0
e 205 296 85.0
e 205 192 48.0
e 212 281 40.0
e 212 215 25.0
e 212 222 86.0
e 215 224 59.0
e 224 225 93.0
e 224 226 76.0
e 225 274 62.0
e 228 299 47.0
e 228 230 30.0
e 228 231 51.0
e 230 232 19.0
e 233 234 49.0
e 233 236 29.0
e 233 237 51.0
e 236 237 42.0
e 237 238 5.0
e 238 239 58.0
e 240 241 87.0
e 240 254 91.0
e 240 243 73.0
e 241 245 93.0
e 241 247 85.0
e 245 248 73.0
e 245 249 47.0
e 249 250 42.0
e 249 255 66.0
e 256 258 10.0
e 256 205 31.0
e 258 259 49.0
e 258 268 85.0
e 269 270 1.0
e 269 256 8.0
e 271 272 22.0
e 271 269 3.0
e 273 275 1.0
e 273 271 1.0
e 276 279 36.0
e 279 280 12.0
e 281 282 76.0
e 283 284 73.0
e 284 286 9.0
e 284 297 54.0
e 287 288 26.0
e 291 294 47.0
e 291 298 97.0
e 298 299 98.0
e 298 300 90.0
e 301 302 93.0
e 303 304 36.0
e 303 305 90.0
e 303 306 10.0
e 303 273 9.0
e 308 309 2.0
e 308 303 98.0
e 310 311 1.0
e 310 308 1.0
e 313 314 98.0
e 313 315 89.0
e 313 316 66.0
e 314 315 1.0
e 314 318 33.0
e 315 319 16.0
